6064
0 1 0 0 1 0 0 0 0 1 0 0 0 0 0 1 0 1 0 0 1 1 0 0 1 0 0 0 0 0 
1 1 1 1 1 1 1 4 4 4 4 4 4 15 15 15 15 15 9 9 9 9 9 9 9 15 15 15 15 15 15 15 15 15 15 15 17 17 17 17 17 17 20 20 20 20 20 20 21 20 21 20 24 21 21 21 21 24 24 24 24 24 24 24 24 24 24 24 24 24 
